7308
7204
7286
7341
7386
7291
7281
7373
7295
7361
7394
7386
7307
7258
7386
7405
7307
7215
7426
7291
7271
7327
7161
7330
7171
7341
7330
7341
7310
7392
7294
7300
7418
7372
7381
7346
7347
7299
7409
7401
7271
7335
7092
7430
7328
7295
7355
7233
7263
7457
7300
7457
7413
7326
7346
7239
7347
7293
7393
7353
7271
7266
7259
7342
7384
7465
7324
7413
7438
7396
7319
7301
7254
7186
7419
7384
7308
7310
7283
7341
7254
7422
7332
7363
7291
7454
7375
7303
7210
7314
7252
7308
7369
7378
7386
7332
7338
7304
7364
7306
